
  22   10
  10   10   10   10   10   10   10   10   10   10

   0   0   0   0   0   0   0   0   0   0   0  14 2 3 4 5 12 13 14 15 16 17 18 19 20 21 
   7   0   0   0   0   0   0   0   0   0  10   4 11 10 9 6 
   7   0   0   0   0   0   0   0   0  10   0   2 8 6 
   1   0   0   0   0   0   0  10   0   0   0   1 7 
  10   0  10   0   0   0   0   0   0   0   0   1 6 
   2   0   0   0   0   0   0   0   0  10   0   1 22
   5   0  10   0   0   0   0   0   0   0   0   1 22
   6   0   0   0   0   0   0  10   0   0   0   1 22
   8   0  10   0   0   0   0   0   0   0   0   1 22
  10  10   0   0   0   0   0   0   0   0   0   1 22
   9  10   0   0   0   0   0   0   0   0   0   1 22
   2   0   0   0   0   0   0  10   0   0   0   1 22
   5   0   0   0   0   0   0  10   0   0   0   1 22
   3   0   0   0   0   0   0   0  10   0   0   1 22
   7   0   0   0   0  10   0   0   0   0   0   1 22
   3  10   0   0   0   0   0   0   0   0   0   1 22
   7   0   0   0   0  10   0   0   0   0   0   1 22
   8   0   0   0   0   0   0   0   0  10   0   1 22
   4   0   0  10   0   0   0   0   0   0   0   1 22
   7  10   0   0   0   0   0   0   0   0   0   1 22
   7   0   0   0  10   0   0   0   0   0   0   1 22
   0   0   0   0   0   0   0   0   0   0   0   0 
